p cnf 211 427
97 0
-1 97 0
1 -97 0
98 0
-2 98 0
2 -98 0
99 0
-3 99 0
3 -99 0
100 0
-4 100 0
4 -100 0
101 0
-5 101 0
5 -101 0
102 0
-6 102 0
6 -102 0
103 0
-7 103 0
7 -103 0
104 0
-8 104 0
8 -104 0
105 0
-9 105 0
9 -105 0
106 0
-10 106 0
10 -106 0
107 0
-11 107 0
11 -107 0
108 0
-12 108 0
12 -108 0
109 0
-13 109 0
13 -109 0
110 0
-14 110 0
14 -110 0
111 0
-15 111 0
15 -111 0
112 0
-16 112 0
16 -112 0
113 0
-17 113 0
17 -113 0
114 0
-18 114 0
18 -114 0
115 0
-19 115 0
19 -115 0
116 0
-20 116 0
20 -116 0
117 0
-21 117 0
21 -117 0
118 0
-22 118 0
22 -118 0
119 0
-23 119 0
23 -119 0
120 0
-24 120 0
24 -120 0
121 0
-25 121 0
25 -121 0
122 0
-26 122 0
26 -122 0
123 0
-27 123 0
27 -123 0
124 0
-28 124 0
28 -124 0
125 0
-29 125 0
29 -125 0
126 0
-30 126 0
30 -126 0
127 0
-31 127 0
31 -127 0
128 0
-32 128 0
32 -128 0
129 0
-33 129 0
33 -129 0
130 -58 -45 0
-130 58 0
-130 45 0
131 -88 0
-131 88 0
-35 130 131 0
35 -130 0
35 -131 0
132 -36 0
-132 36 0
-37 132 0
37 -132 0
133 -89 0
-133 89 0
134 -52 -49 0
-134 52 0
-134 49 0
-39 133 134 0
39 -133 0
39 -134 0
135 -53 -80 0
-135 53 0
-135 80 0
136 -55 -83 0
-136 55 0
-136 83 0
137 -64 -82 0
-137 64 0
-137 82 0
138 -76 0
-138 76 0
139 -59 -81 0
-139 59 0
-139 81 0
-41 135 136 137 138 139 0
41 -135 0
41 -136 0
41 -137 0
41 -138 0
41 -139 0
140 -72 -87 0
-140 72 0
-140 87 0
141 -60 -81 0
-141 60 0
-141 81 0
142 -74 -86 0
-142 74 0
-142 86 0
143 -56 -83 0
-143 56 0
-143 83 0
144 -54 -80 0
-144 54 0
-144 80 0
145 -82 0
-145 82 0
146 -68 -76 0
-146 68 0
-146 76 0
-42 140 141 142 143 144 145 146 0
42 -140 0
42 -141 0
42 -142 0
42 -143 0
42 -144 0
42 -145 0
42 -146 0
147 -57 -47 0
-147 57 0
-147 47 0
148 -91 0
-148 91 0
-45 147 148 0
45 -147 0
45 -148 0
149 -83 0
-149 83 0
150 -66 -42 0
-150 66 0
-150 42 0
151 -61 -91 0
-151 61 0
-151 91 0
152 -70 -41 0
-152 70 0
-152 41 0
-47 149 150 151 152 0
47 -149 0
47 -150 0
47 -151 0
47 -152 0
153 -67 -42 0
-153 67 0
-153 42 0
154 -71 -41 0
-154 71 0
-154 41 0
155 -73 -89 0
-155 73 0
-155 89 0
156 -80 0
-156 80 0
-49 153 154 155 156 0
49 -153 0
49 -154 0
49 -155 0
49 -156 0
157 -50 0
-157 50 0
-51 157 0
51 -157 0
158 -55 -79 0
-158 55 0
-158 79 0
159 -59 -78 0
-159 59 0
-159 78 0
160 -40 0
-160 40 0
161 -53 -77 0
-161 53 0
-161 77 0
-76 158 159 160 161 0
76 -158 0
76 -159 0
76 -160 0
76 -161 0
162 -73 -85 0
-162 73 0
-162 85 0
163 -90 0
-163 90 0
-77 162 163 0
77 -162 0
77 -163 0
164 -75 -95 0
-164 75 0
-164 95 0
165 -57 -92 0
-165 57 0
-165 92 0
166 -44 0
-166 44 0
-78 164 165 166 0
78 -164 0
78 -165 0
78 -166 0
167 -61 -78 0
-167 61 0
-167 78 0
168 -92 0
-168 92 0
-79 167 168 0
79 -167 0
79 -168 0
169 -73 -87 0
-169 73 0
-169 87 0
170 -93 0
-170 93 0
-80 169 170 0
80 -169 0
80 -170 0
171 -69 -76 0
-171 69 0
-171 76 0
172 -57 -94 0
-172 57 0
-172 94 0
173 -75 -96 0
-173 75 0
-173 96 0
174 -65 -82 0
-174 65 0
-174 82 0
175 -78 0
-175 78 0
-81 171 172 173 174 175 0
81 -171 0
81 -172 0
81 -173 0
81 -174 0
81 -175 0
176 -56 -79 0
-176 56 0
-176 79 0
177 -74 -84 0
-177 74 0
-177 84 0
178 -54 -77 0
-178 54 0
-178 77 0
179 -72 -85 0
-179 72 0
-179 85 0
180 -60 -78 0
-180 60 0
-180 78 0
181 -43 0
-181 43 0
-82 176 177 178 179 180 181 0
82 -176 0
82 -177 0
82 -178 0
82 -179 0
82 -180 0
82 -181 0
182 -94 0
-182 94 0
183 -61 -81 0
-183 61 0
-183 81 0
-83 182 183 0
83 -182 0
83 -183 0
184 -95 0
-184 95 0
185 -58 -78 0
-185 58 0
-185 78 0
-84 184 185 0
84 -184 0
84 -185 0
186 -52 -90 0
-186 52 0
-186 90 0
187 -38 0
-187 38 0
-85 186 187 0
85 -186 0
85 -187 0
188 -58 -81 0
-188 58 0
-188 81 0
189 -96 0
-189 96 0
-86 188 189 0
86 -188 0
86 -189 0
190 -85 0
-190 85 0
191 -63 -82 0
-191 63 0
-191 82 0
192 -52 -93 0
-192 52 0
-192 93 0
-87 190 191 192 0
87 -190 0
87 -191 0
87 -192 0
193 -62 -42 0
-193 62 0
-193 42 0
194 -86 0
-194 86 0
-88 193 194 0
88 -193 0
88 -194 0
195 -87 0
-195 87 0
196 -63 -42 0
-196 63 0
-196 42 0
-89 195 196 0
89 -195 0
89 -196 0
197 -48 0
-197 48 0
-90 197 0
90 -197 0
198 -75 -88 0
-198 75 0
-198 88 0
199 -81 0
-199 81 0
200 -65 -42 0
-200 65 0
-200 42 0
201 -69 -41 0
-201 69 0
-201 41 0
-91 198 199 200 201 0
91 -198 0
91 -199 0
91 -200 0
91 -201 0
202 -46 0
-202 46 0
-92 202 0
92 -202 0
203 -67 -82 0
-203 67 0
-203 82 0
204 -77 0
-204 77 0
205 -71 -76 0
-205 71 0
-205 76 0
-93 203 204 205 0
93 -203 0
93 -204 0
93 -205 0
206 -66 -82 0
-206 66 0
-206 82 0
207 -79 0
-207 79 0
208 -70 -76 0
-208 70 0
-208 76 0
-94 206 207 208 0
94 -206 0
94 -207 0
94 -208 0
209 -34 0
-209 34 0
-95 209 0
95 -209 0
210 -62 -82 0
-210 62 0
-210 82 0
211 -84 0
-211 84 0
-96 210 211 0
96 -210 0
96 -211 0
c p weight 1 1.0;1.0;1.0;1.0;1.0;1.0;1.0;1.0;1.0 0
c p weight -1 1.0;1.0;1.0;1.0;1.0;1.0;1.0;1.0;1.0 0
c p weight 2 1.0;1.0;1.0;1.0;1.0;1.0;1.0;1.0;1.0 0
c p weight -2 1.0;1.0;1.0;1.0;1.0;1.0;1.0;1.0;1.0 0
c p weight 3 1.0;1.0;1.0;1.0;1.0;1.0;1.0;1.0;1.0 0
c p weight -3 1.0;1.0;1.0;1.0;1.0;1.0;1.0;1.0;1.0 0
c p weight 4 1.0;1.0;1.0;1.0;1.0;1.0;1.0;1.0;1.0 0
c p weight -4 1.0;1.0;1.0;1.0;1.0;1.0;1.0;1.0;1.0 0
c p weight 5 1.0;1.0;1.0;1.0;1.0;1.0;1.0;1.0;1.0 0
c p weight -5 1.0;1.0;1.0;1.0;1.0;1.0;1.0;1.0;1.0 0
c p weight 6 1.0;1.0;1.0;1.0;1.0;1.0;1.0;1.0;1.0 0
c p weight -6 1.0;1.0;1.0;1.0;1.0;1.0;1.0;1.0;1.0 0
c p weight 7 1.0;1.0;1.0;1.0;1.0;1.0;1.0;1.0;1.0 0
c p weight -7 1.0;1.0;1.0;1.0;1.0;1.0;1.0;1.0;1.0 0
c p weight 8 1.0;1.0;1.0;1.0;1.0;1.0;1.0;1.0;1.0 0
c p weight -8 1.0;1.0;1.0;1.0;1.0;1.0;1.0;1.0;1.0 0
c p weight 9 1.0;1.0;1.0;1.0;1.0;1.0;1.0;1.0;1.0 0
c p weight -9 1.0;1.0;1.0;1.0;1.0;1.0;1.0;1.0;1.0 0
c p weight 10 1.0;1.0;1.0;1.0;1.0;1.0;1.0;1.0;1.0 0
c p weight -10 1.0;1.0;1.0;1.0;1.0;1.0;1.0;1.0;1.0 0
c p weight 11 1.0;1.0;1.0;1.0;1.0;1.0;1.0;1.0;1.0 0
c p weight -11 1.0;1.0;1.0;1.0;1.0;1.0;1.0;1.0;1.0 0
c p weight 12 1.0;1.0;1.0;1.0;1.0;1.0;1.0;1.0;1.0 0
c p weight -12 1.0;1.0;1.0;1.0;1.0;1.0;1.0;1.0;1.0 0
c p weight 13 1.0;1.0;1.0;1.0;1.0;1.0;1.0;1.0;1.0 0
c p weight -13 1.0;1.0;1.0;1.0;1.0;1.0;1.0;1.0;1.0 0
c p weight 14 1.0;1.0;1.0;1.0;1.0;1.0;1.0;1.0;1.0 0
c p weight -14 1.0;1.0;1.0;1.0;1.0;1.0;1.0;1.0;1.0 0
c p weight 15 1.0;1.0;1.0;1.0;1.0;1.0;1.0;1.0;1.0 0
c p weight -15 1.0;1.0;1.0;1.0;1.0;1.0;1.0;1.0;1.0 0
c p weight 16 1.0;1.0;1.0;1.0;1.0;1.0;1.0;1.0;1.0 0
c p weight -16 1.0;1.0;1.0;1.0;1.0;1.0;1.0;1.0;1.0 0
c p weight 17 1.0;1.0;1.0;1.0;1.0;1.0;1.0;1.0;1.0 0
c p weight -17 1.0;1.0;1.0;1.0;1.0;1.0;1.0;1.0;1.0 0
c p weight 18 1.0;1.0;1.0;1.0;1.0;1.0;1.0;1.0;1.0 0
c p weight -18 1.0;1.0;1.0;1.0;1.0;1.0;1.0;1.0;1.0 0
c p weight 19 1.0;1.0;1.0;1.0;1.0;1.0;1.0;1.0;1.0 0
c p weight -19 1.0;1.0;1.0;1.0;1.0;1.0;1.0;1.0;1.0 0
c p weight 20 1.0;1.0;1.0;1.0;1.0;1.0;1.0;1.0;1.0 0
c p weight -20 1.0;1.0;1.0;1.0;1.0;1.0;1.0;1.0;1.0 0
c p weight 21 1.0;1.0;1.0;1.0;1.0;1.0;1.0;1.0;1.0 0
c p weight -21 1.0;1.0;1.0;1.0;1.0;1.0;1.0;1.0;1.0 0
c p weight 22 1.0;1.0;1.0;1.0;1.0;1.0;1.0;1.0;1.0 0
c p weight -22 1.0;1.0;1.0;1.0;1.0;1.0;1.0;1.0;1.0 0
c p weight 23 1.0;1.0;1.0;1.0;1.0;1.0;1.0;1.0;1.0 0
c p weight -23 1.0;1.0;1.0;1.0;1.0;1.0;1.0;1.0;1.0 0
c p weight 24 1.0;1.0;1.0;1.0;1.0;1.0;1.0;1.0;1.0 0
c p weight -24 1.0;1.0;1.0;1.0;1.0;1.0;1.0;1.0;1.0 0
c p weight 25 1.0;1.0;1.0;1.0;1.0;1.0;1.0;1.0;1.0 0
c p weight -25 1.0;1.0;1.0;1.0;1.0;1.0;1.0;1.0;1.0 0
c p weight 26 1.0;1.0;1.0;1.0;1.0;1.0;1.0;1.0;1.0 0
c p weight -26 1.0;1.0;1.0;1.0;1.0;1.0;1.0;1.0;1.0 0
c p weight 27 1.0;1.0;1.0;1.0;1.0;1.0;1.0;1.0;1.0 0
c p weight -27 1.0;1.0;1.0;1.0;1.0;1.0;1.0;1.0;1.0 0
c p weight 28 1.0;1.0;1.0;1.0;1.0;1.0;1.0;1.0;1.0 0
c p weight -28 1.0;1.0;1.0;1.0;1.0;1.0;1.0;1.0;1.0 0
c p weight 29 1.0;1.0;1.0;1.0;1.0;1.0;1.0;1.0;1.0 0
c p weight -29 1.0;1.0;1.0;1.0;1.0;1.0;1.0;1.0;1.0 0
c p weight 30 1.0;1.0;1.0;1.0;1.0;1.0;1.0;1.0;1.0 0
c p weight -30 1.0;1.0;1.0;1.0;1.0;1.0;1.0;1.0;1.0 0
c p weight 31 1.0;1.0;1.0;1.0;1.0;1.0;1.0;1.0;1.0 0
c p weight -31 1.0;1.0;1.0;1.0;1.0;1.0;1.0;1.0;1.0 0
c p weight 32 1.0;1.0;1.0;1.0;1.0;1.0;1.0;1.0;1.0 0
c p weight -32 1.0;1.0;1.0;1.0;1.0;1.0;1.0;1.0;1.0 0
c p weight 33 1.0;1.0;1.0;1.0;1.0;1.0;1.0;1.0;1.0 0
c p weight -33 1.0;1.0;1.0;1.0;1.0;1.0;1.0;1.0;1.0 0
c p weight 34 0.5;0.5;0.5;0.5;0.5;0.5;0.5;0.5;0.5 0
c p weight -34 0.5;0.5;0.5;0.5;0.5;0.5;0.5;0.5;0.5 0
c p weight 35 1.0;1.0;1.0;1.0;1.0;1.0;1.0;1.0;1.0 0
c p weight -35 0.0;1.0;1.0;1.0;1.0;1.0;1.0;1.0;1.0 0
c p weight 36 0.5;0.5;0.5;0.5;0.5;0.5;0.5;0.5;0.5 0
c p weight -36 0.5;0.5;0.5;0.5;0.5;0.5;0.5;0.5;0.5 0
c p weight 37 1.0;1.0;1.0;1.0;1.0;1.0;1.0;1.0;1.0 0
c p weight -37 1.0;0.0;1.0;1.0;1.0;1.0;1.0;1.0;1.0 0
c p weight 38 0.5;0.5;0.5;0.5;0.5;0.5;0.5;0.5;0.5 0
c p weight -38 0.5;0.5;0.5;0.5;0.5;0.5;0.5;0.5;0.5 0
c p weight 39 1.0;1.0;1.0;1.0;1.0;1.0;1.0;1.0;1.0 0
c p weight -39 1.0;1.0;0.0;1.0;1.0;1.0;1.0;1.0;1.0 0
c p weight 40 0.5;0.5;0.5;0.5;0.5;0.5;0.5;0.5;0.5 0
c p weight -40 0.5;0.5;0.5;0.5;0.5;0.5;0.5;0.5;0.5 0
c p weight 41 1.0;1.0;1.0;1.0;1.0;1.0;1.0;1.0;1.0 0
c p weight -41 1.0;1.0;1.0;0.0;1.0;1.0;1.0;1.0;1.0 0
c p weight 42 1.0;1.0;1.0;1.0;1.0;1.0;1.0;1.0;1.0 0
c p weight -42 1.0;1.0;1.0;1.0;0.0;1.0;1.0;1.0;1.0 0
c p weight 43 0.5;0.5;0.5;0.5;0.5;0.5;0.5;0.5;0.5 0
c p weight -43 0.5;0.5;0.5;0.5;0.5;0.5;0.5;0.5;0.5 0
c p weight 44 0.5;0.5;0.5;0.5;0.5;0.5;0.5;0.5;0.5 0
c p weight -44 0.5;0.5;0.5;0.5;0.5;0.5;0.5;0.5;0.5 0
c p weight 45 1.0;1.0;1.0;1.0;1.0;1.0;1.0;1.0;1.0 0
c p weight -45 1.0;1.0;1.0;1.0;1.0;0.0;1.0;1.0;1.0 0
c p weight 46 0.5;0.5;0.5;0.5;0.5;0.5;0.5;0.5;0.5 0
c p weight -46 0.5;0.5;0.5;0.5;0.5;0.5;0.5;0.5;0.5 0
c p weight 47 1.0;1.0;1.0;1.0;1.0;1.0;1.0;1.0;1.0 0
c p weight -47 1.0;1.0;1.0;1.0;1.0;1.0;0.0;1.0;1.0 0
c p weight 48 0.5;0.5;0.5;0.5;0.5;0.5;0.5;0.5;0.5 0
c p weight -48 0.5;0.5;0.5;0.5;0.5;0.5;0.5;0.5;0.5 0
c p weight 49 1.0;1.0;1.0;1.0;1.0;1.0;1.0;1.0;1.0 0
c p weight -49 1.0;1.0;1.0;1.0;1.0;1.0;1.0;0.0;1.0 0
c p weight 50 0.5;0.5;0.5;0.5;0.5;0.5;0.5;0.5;0.5 0
c p weight -50 0.5;0.5;0.5;0.5;0.5;0.5;0.5;0.5;0.5 0
c p weight 51 1.0;1.0;1.0;1.0;1.0;1.0;1.0;1.0;1.0 0
c p weight -51 1.0;1.0;1.0;1.0;1.0;1.0;1.0;1.0;0.0 0
c p weight 52 0.5;0.5;0.5;0.5;0.5;0.5;0.5;0.5;0.5 0
c p weight -52 0.5;0.5;0.5;0.5;0.5;0.5;0.5;0.5;0.5 0
c p weight 53 0.5;0.5;0.5;0.5;0.5;0.5;0.5;0.5;0.5 0
c p weight -53 0.5;0.5;0.5;0.5;0.5;0.5;0.5;0.5;0.5 0
c p weight 54 0.5;0.5;0.5;0.5;0.5;0.5;0.5;0.5;0.5 0
c p weight -54 0.5;0.5;0.5;0.5;0.5;0.5;0.5;0.5;0.5 0
c p weight 55 0.5;0.5;0.5;0.5;0.5;0.5;0.5;0.5;0.5 0
c p weight -55 0.5;0.5;0.5;0.5;0.5;0.5;0.5;0.5;0.5 0
c p weight 56 0.5;0.5;0.5;0.5;0.5;0.5;0.5;0.5;0.5 0
c p weight -56 0.5;0.5;0.5;0.5;0.5;0.5;0.5;0.5;0.5 0
c p weight 57 0.5;0.5;0.5;0.5;0.5;0.5;0.5;0.5;0.5 0
c p weight -57 0.5;0.5;0.5;0.5;0.5;0.5;0.5;0.5;0.5 0
c p weight 58 0.5;0.5;0.5;0.5;0.5;0.5;0.5;0.5;0.5 0
c p weight -58 0.5;0.5;0.5;0.5;0.5;0.5;0.5;0.5;0.5 0
c p weight 59 0.5;0.5;0.5;0.5;0.5;0.5;0.5;0.5;0.5 0
c p weight -59 0.5;0.5;0.5;0.5;0.5;0.5;0.5;0.5;0.5 0
c p weight 60 0.5;0.5;0.5;0.5;0.5;0.5;0.5;0.5;0.5 0
c p weight -60 0.5;0.5;0.5;0.5;0.5;0.5;0.5;0.5;0.5 0
c p weight 61 0.5;0.5;0.5;0.5;0.5;0.5;0.5;0.5;0.5 0
c p weight -61 0.5;0.5;0.5;0.5;0.5;0.5;0.5;0.5;0.5 0
c p weight 62 0.5;0.5;0.5;0.5;0.5;0.5;0.5;0.5;0.5 0
c p weight -62 0.5;0.5;0.5;0.5;0.5;0.5;0.5;0.5;0.5 0
c p weight 63 0.5;0.5;0.5;0.5;0.5;0.5;0.5;0.5;0.5 0
c p weight -63 0.5;0.5;0.5;0.5;0.5;0.5;0.5;0.5;0.5 0
c p weight 64 0.5;0.5;0.5;0.5;0.5;0.5;0.5;0.5;0.5 0
c p weight -64 0.5;0.5;0.5;0.5;0.5;0.5;0.5;0.5;0.5 0
c p weight 65 0.5;0.5;0.5;0.5;0.5;0.5;0.5;0.5;0.5 0
c p weight -65 0.5;0.5;0.5;0.5;0.5;0.5;0.5;0.5;0.5 0
c p weight 66 0.5;0.5;0.5;0.5;0.5;0.5;0.5;0.5;0.5 0
c p weight -66 0.5;0.5;0.5;0.5;0.5;0.5;0.5;0.5;0.5 0
c p weight 67 0.5;0.5;0.5;0.5;0.5;0.5;0.5;0.5;0.5 0
c p weight -67 0.5;0.5;0.5;0.5;0.5;0.5;0.5;0.5;0.5 0
c p weight 68 0.5;0.5;0.5;0.5;0.5;0.5;0.5;0.5;0.5 0
c p weight -68 0.5;0.5;0.5;0.5;0.5;0.5;0.5;0.5;0.5 0
c p weight 69 0.5;0.5;0.5;0.5;0.5;0.5;0.5;0.5;0.5 0
c p weight -69 0.5;0.5;0.5;0.5;0.5;0.5;0.5;0.5;0.5 0
c p weight 70 0.5;0.5;0.5;0.5;0.5;0.5;0.5;0.5;0.5 0
c p weight -70 0.5;0.5;0.5;0.5;0.5;0.5;0.5;0.5;0.5 0
c p weight 71 0.5;0.5;0.5;0.5;0.5;0.5;0.5;0.5;0.5 0
c p weight -71 0.5;0.5;0.5;0.5;0.5;0.5;0.5;0.5;0.5 0
c p weight 72 0.5;0.5;0.5;0.5;0.5;0.5;0.5;0.5;0.5 0
c p weight -72 0.5;0.5;0.5;0.5;0.5;0.5;0.5;0.5;0.5 0
c p weight 73 0.5;0.5;0.5;0.5;0.5;0.5;0.5;0.5;0.5 0
c p weight -73 0.5;0.5;0.5;0.5;0.5;0.5;0.5;0.5;0.5 0
c p weight 74 0.5;0.5;0.5;0.5;0.5;0.5;0.5;0.5;0.5 0
c p weight -74 0.5;0.5;0.5;0.5;0.5;0.5;0.5;0.5;0.5 0
c p weight 75 0.5;0.5;0.5;0.5;0.5;0.5;0.5;0.5;0.5 0
c p weight -75 0.5;0.5;0.5;0.5;0.5;0.5;0.5;0.5;0.5 0
c p weight 76 1.0;1.0;1.0;1.0;1.0;1.0;1.0;1.0;1.0 0
c p weight -76 1.0;1.0;1.0;1.0;1.0;1.0;1.0;1.0;1.0 0
c p weight 77 1.0;1.0;1.0;1.0;1.0;1.0;1.0;1.0;1.0 0
c p weight -77 1.0;1.0;1.0;1.0;1.0;1.0;1.0;1.0;1.0 0
c p weight 78 1.0;1.0;1.0;1.0;1.0;1.0;1.0;1.0;1.0 0
c p weight -78 1.0;1.0;1.0;1.0;1.0;1.0;1.0;1.0;1.0 0
c p weight 79 1.0;1.0;1.0;1.0;1.0;1.0;1.0;1.0;1.0 0
c p weight -79 1.0;1.0;1.0;1.0;1.0;1.0;1.0;1.0;1.0 0
c p weight 80 1.0;1.0;1.0;1.0;1.0;1.0;1.0;1.0;1.0 0
c p weight -80 1.0;1.0;1.0;1.0;1.0;1.0;1.0;1.0;1.0 0
c p weight 81 1.0;1.0;1.0;1.0;1.0;1.0;1.0;1.0;1.0 0
c p weight -81 1.0;1.0;1.0;1.0;1.0;1.0;1.0;1.0;1.0 0
c p weight 82 1.0;1.0;1.0;1.0;1.0;1.0;1.0;1.0;1.0 0
c p weight -82 1.0;1.0;1.0;1.0;1.0;1.0;1.0;1.0;1.0 0
c p weight 83 1.0;1.0;1.0;1.0;1.0;1.0;1.0;1.0;1.0 0
c p weight -83 1.0;1.0;1.0;1.0;1.0;1.0;1.0;1.0;1.0 0
c p weight 84 1.0;1.0;1.0;1.0;1.0;1.0;1.0;1.0;1.0 0
c p weight -84 1.0;1.0;1.0;1.0;1.0;1.0;1.0;1.0;1.0 0
c p weight 85 1.0;1.0;1.0;1.0;1.0;1.0;1.0;1.0;1.0 0
c p weight -85 1.0;1.0;1.0;1.0;1.0;1.0;1.0;1.0;1.0 0
c p weight 86 1.0;1.0;1.0;1.0;1.0;1.0;1.0;1.0;1.0 0
c p weight -86 1.0;1.0;1.0;1.0;1.0;1.0;1.0;1.0;1.0 0
c p weight 87 1.0;1.0;1.0;1.0;1.0;1.0;1.0;1.0;1.0 0
c p weight -87 1.0;1.0;1.0;1.0;1.0;1.0;1.0;1.0;1.0 0
c p weight 88 1.0;1.0;1.0;1.0;1.0;1.0;1.0;1.0;1.0 0
c p weight -88 1.0;1.0;1.0;1.0;1.0;1.0;1.0;1.0;1.0 0
c p weight 89 1.0;1.0;1.0;1.0;1.0;1.0;1.0;1.0;1.0 0
c p weight -89 1.0;1.0;1.0;1.0;1.0;1.0;1.0;1.0;1.0 0
c p weight 90 1.0;1.0;1.0;1.0;1.0;1.0;1.0;1.0;1.0 0
c p weight -90 1.0;1.0;1.0;1.0;1.0;1.0;1.0;1.0;1.0 0
c p weight 91 1.0;1.0;1.0;1.0;1.0;1.0;1.0;1.0;1.0 0
c p weight -91 1.0;1.0;1.0;1.0;1.0;1.0;1.0;1.0;1.0 0
c p weight 92 1.0;1.0;1.0;1.0;1.0;1.0;1.0;1.0;1.0 0
c p weight -92 1.0;1.0;1.0;1.0;1.0;1.0;1.0;1.0;1.0 0
c p weight 93 1.0;1.0;1.0;1.0;1.0;1.0;1.0;1.0;1.0 0
c p weight -93 1.0;1.0;1.0;1.0;1.0;1.0;1.0;1.0;1.0 0
c p weight 94 1.0;1.0;1.0;1.0;1.0;1.0;1.0;1.0;1.0 0
c p weight -94 1.0;1.0;1.0;1.0;1.0;1.0;1.0;1.0;1.0 0
c p weight 95 1.0;1.0;1.0;1.0;1.0;1.0;1.0;1.0;1.0 0
c p weight -95 1.0;1.0;1.0;1.0;1.0;1.0;1.0;1.0;1.0 0
c p weight 96 1.0;1.0;1.0;1.0;1.0;1.0;1.0;1.0;1.0 0
c p weight -96 1.0;1.0;1.0;1.0;1.0;1.0;1.0;1.0;1.0 0
c p weight 97 1.0;1.0;1.0;1.0;1.0;1.0;1.0;1.0;1.0 0
c p weight -97 1.0;1.0;1.0;1.0;1.0;1.0;1.0;1.0;1.0 0
c p weight 98 1.0;1.0;1.0;1.0;1.0;1.0;1.0;1.0;1.0 0
c p weight -98 1.0;1.0;1.0;1.0;1.0;1.0;1.0;1.0;1.0 0
c p weight 99 1.0;1.0;1.0;1.0;1.0;1.0;1.0;1.0;1.0 0
c p weight -99 1.0;1.0;1.0;1.0;1.0;1.0;1.0;1.0;1.0 0
c p weight 100 1.0;1.0;1.0;1.0;1.0;1.0;1.0;1.0;1.0 0
c p weight -100 1.0;1.0;1.0;1.0;1.0;1.0;1.0;1.0;1.0 0
c p weight 101 1.0;1.0;1.0;1.0;1.0;1.0;1.0;1.0;1.0 0
c p weight -101 1.0;1.0;1.0;1.0;1.0;1.0;1.0;1.0;1.0 0
c p weight 102 1.0;1.0;1.0;1.0;1.0;1.0;1.0;1.0;1.0 0
c p weight -102 1.0;1.0;1.0;1.0;1.0;1.0;1.0;1.0;1.0 0
c p weight 103 1.0;1.0;1.0;1.0;1.0;1.0;1.0;1.0;1.0 0
c p weight -103 1.0;1.0;1.0;1.0;1.0;1.0;1.0;1.0;1.0 0
c p weight 104 1.0;1.0;1.0;1.0;1.0;1.0;1.0;1.0;1.0 0
c p weight -104 1.0;1.0;1.0;1.0;1.0;1.0;1.0;1.0;1.0 0
c p weight 105 1.0;1.0;1.0;1.0;1.0;1.0;1.0;1.0;1.0 0
c p weight -105 1.0;1.0;1.0;1.0;1.0;1.0;1.0;1.0;1.0 0
c p weight 106 1.0;1.0;1.0;1.0;1.0;1.0;1.0;1.0;1.0 0
c p weight -106 1.0;1.0;1.0;1.0;1.0;1.0;1.0;1.0;1.0 0
c p weight 107 1.0;1.0;1.0;1.0;1.0;1.0;1.0;1.0;1.0 0
c p weight -107 1.0;1.0;1.0;1.0;1.0;1.0;1.0;1.0;1.0 0
c p weight 108 1.0;1.0;1.0;1.0;1.0;1.0;1.0;1.0;1.0 0
c p weight -108 1.0;1.0;1.0;1.0;1.0;1.0;1.0;1.0;1.0 0
c p weight 109 1.0;1.0;1.0;1.0;1.0;1.0;1.0;1.0;1.0 0
c p weight -109 1.0;1.0;1.0;1.0;1.0;1.0;1.0;1.0;1.0 0
c p weight 110 1.0;1.0;1.0;1.0;1.0;1.0;1.0;1.0;1.0 0
c p weight -110 1.0;1.0;1.0;1.0;1.0;1.0;1.0;1.0;1.0 0
c p weight 111 1.0;1.0;1.0;1.0;1.0;1.0;1.0;1.0;1.0 0
c p weight -111 1.0;1.0;1.0;1.0;1.0;1.0;1.0;1.0;1.0 0
c p weight 112 1.0;1.0;1.0;1.0;1.0;1.0;1.0;1.0;1.0 0
c p weight -112 1.0;1.0;1.0;1.0;1.0;1.0;1.0;1.0;1.0 0
c p weight 113 1.0;1.0;1.0;1.0;1.0;1.0;1.0;1.0;1.0 0
c p weight -113 1.0;1.0;1.0;1.0;1.0;1.0;1.0;1.0;1.0 0
c p weight 114 1.0;1.0;1.0;1.0;1.0;1.0;1.0;1.0;1.0 0
c p weight -114 1.0;1.0;1.0;1.0;1.0;1.0;1.0;1.0;1.0 0
c p weight 115 1.0;1.0;1.0;1.0;1.0;1.0;1.0;1.0;1.0 0
c p weight -115 1.0;1.0;1.0;1.0;1.0;1.0;1.0;1.0;1.0 0
c p weight 116 1.0;1.0;1.0;1.0;1.0;1.0;1.0;1.0;1.0 0
c p weight -116 1.0;1.0;1.0;1.0;1.0;1.0;1.0;1.0;1.0 0
c p weight 117 1.0;1.0;1.0;1.0;1.0;1.0;1.0;1.0;1.0 0
c p weight -117 1.0;1.0;1.0;1.0;1.0;1.0;1.0;1.0;1.0 0
c p weight 118 1.0;1.0;1.0;1.0;1.0;1.0;1.0;1.0;1.0 0
c p weight -118 1.0;1.0;1.0;1.0;1.0;1.0;1.0;1.0;1.0 0
c p weight 119 1.0;1.0;1.0;1.0;1.0;1.0;1.0;1.0;1.0 0
c p weight -119 1.0;1.0;1.0;1.0;1.0;1.0;1.0;1.0;1.0 0
c p weight 120 1.0;1.0;1.0;1.0;1.0;1.0;1.0;1.0;1.0 0
c p weight -120 1.0;1.0;1.0;1.0;1.0;1.0;1.0;1.0;1.0 0
c p weight 121 1.0;1.0;1.0;1.0;1.0;1.0;1.0;1.0;1.0 0
c p weight -121 1.0;1.0;1.0;1.0;1.0;1.0;1.0;1.0;1.0 0
c p weight 122 1.0;1.0;1.0;1.0;1.0;1.0;1.0;1.0;1.0 0
c p weight -122 1.0;1.0;1.0;1.0;1.0;1.0;1.0;1.0;1.0 0
c p weight 123 1.0;1.0;1.0;1.0;1.0;1.0;1.0;1.0;1.0 0
c p weight -123 1.0;1.0;1.0;1.0;1.0;1.0;1.0;1.0;1.0 0
c p weight 124 1.0;1.0;1.0;1.0;1.0;1.0;1.0;1.0;1.0 0
c p weight -124 1.0;1.0;1.0;1.0;1.0;1.0;1.0;1.0;1.0 0
c p weight 125 1.0;1.0;1.0;1.0;1.0;1.0;1.0;1.0;1.0 0
c p weight -125 1.0;1.0;1.0;1.0;1.0;1.0;1.0;1.0;1.0 0
c p weight 126 1.0;1.0;1.0;1.0;1.0;1.0;1.0;1.0;1.0 0
c p weight -126 1.0;1.0;1.0;1.0;1.0;1.0;1.0;1.0;1.0 0
c p weight 127 1.0;1.0;1.0;1.0;1.0;1.0;1.0;1.0;1.0 0
c p weight -127 1.0;1.0;1.0;1.0;1.0;1.0;1.0;1.0;1.0 0
c p weight 128 1.0;1.0;1.0;1.0;1.0;1.0;1.0;1.0;1.0 0
c p weight -128 1.0;1.0;1.0;1.0;1.0;1.0;1.0;1.0;1.0 0
c p weight 129 1.0;1.0;1.0;1.0;1.0;1.0;1.0;1.0;1.0 0
c p weight -129 1.0;1.0;1.0;1.0;1.0;1.0;1.0;1.0;1.0 0
c p weight 130 1.0;1.0;1.0;1.0;1.0;1.0;1.0;1.0;1.0 0
c p weight -130 1.0;1.0;1.0;1.0;1.0;1.0;1.0;1.0;1.0 0
c p weight 131 1.0;1.0;1.0;1.0;1.0;1.0;1.0;1.0;1.0 0
c p weight -131 1.0;1.0;1.0;1.0;1.0;1.0;1.0;1.0;1.0 0
c p weight 132 1.0;1.0;1.0;1.0;1.0;1.0;1.0;1.0;1.0 0
c p weight -132 1.0;1.0;1.0;1.0;1.0;1.0;1.0;1.0;1.0 0
c p weight 133 1.0;1.0;1.0;1.0;1.0;1.0;1.0;1.0;1.0 0
c p weight -133 1.0;1.0;1.0;1.0;1.0;1.0;1.0;1.0;1.0 0
c p weight 134 1.0;1.0;1.0;1.0;1.0;1.0;1.0;1.0;1.0 0
c p weight -134 1.0;1.0;1.0;1.0;1.0;1.0;1.0;1.0;1.0 0
c p weight 135 1.0;1.0;1.0;1.0;1.0;1.0;1.0;1.0;1.0 0
c p weight -135 1.0;1.0;1.0;1.0;1.0;1.0;1.0;1.0;1.0 0
c p weight 136 1.0;1.0;1.0;1.0;1.0;1.0;1.0;1.0;1.0 0
c p weight -136 1.0;1.0;1.0;1.0;1.0;1.0;1.0;1.0;1.0 0
c p weight 137 1.0;1.0;1.0;1.0;1.0;1.0;1.0;1.0;1.0 0
c p weight -137 1.0;1.0;1.0;1.0;1.0;1.0;1.0;1.0;1.0 0
c p weight 138 1.0;1.0;1.0;1.0;1.0;1.0;1.0;1.0;1.0 0
c p weight -138 1.0;1.0;1.0;1.0;1.0;1.0;1.0;1.0;1.0 0
c p weight 139 1.0;1.0;1.0;1.0;1.0;1.0;1.0;1.0;1.0 0
c p weight -139 1.0;1.0;1.0;1.0;1.0;1.0;1.0;1.0;1.0 0
c p weight 140 1.0;1.0;1.0;1.0;1.0;1.0;1.0;1.0;1.0 0
c p weight -140 1.0;1.0;1.0;1.0;1.0;1.0;1.0;1.0;1.0 0
c p weight 141 1.0;1.0;1.0;1.0;1.0;1.0;1.0;1.0;1.0 0
c p weight -141 1.0;1.0;1.0;1.0;1.0;1.0;1.0;1.0;1.0 0
c p weight 142 1.0;1.0;1.0;1.0;1.0;1.0;1.0;1.0;1.0 0
c p weight -142 1.0;1.0;1.0;1.0;1.0;1.0;1.0;1.0;1.0 0
c p weight 143 1.0;1.0;1.0;1.0;1.0;1.0;1.0;1.0;1.0 0
c p weight -143 1.0;1.0;1.0;1.0;1.0;1.0;1.0;1.0;1.0 0
c p weight 144 1.0;1.0;1.0;1.0;1.0;1.0;1.0;1.0;1.0 0
c p weight -144 1.0;1.0;1.0;1.0;1.0;1.0;1.0;1.0;1.0 0
c p weight 145 1.0;1.0;1.0;1.0;1.0;1.0;1.0;1.0;1.0 0
c p weight -145 1.0;1.0;1.0;1.0;1.0;1.0;1.0;1.0;1.0 0
c p weight 146 1.0;1.0;1.0;1.0;1.0;1.0;1.0;1.0;1.0 0
c p weight -146 1.0;1.0;1.0;1.0;1.0;1.0;1.0;1.0;1.0 0
c p weight 147 1.0;1.0;1.0;1.0;1.0;1.0;1.0;1.0;1.0 0
c p weight -147 1.0;1.0;1.0;1.0;1.0;1.0;1.0;1.0;1.0 0
c p weight 148 1.0;1.0;1.0;1.0;1.0;1.0;1.0;1.0;1.0 0
c p weight -148 1.0;1.0;1.0;1.0;1.0;1.0;1.0;1.0;1.0 0
c p weight 149 1.0;1.0;1.0;1.0;1.0;1.0;1.0;1.0;1.0 0
c p weight -149 1.0;1.0;1.0;1.0;1.0;1.0;1.0;1.0;1.0 0
c p weight 150 1.0;1.0;1.0;1.0;1.0;1.0;1.0;1.0;1.0 0
c p weight -150 1.0;1.0;1.0;1.0;1.0;1.0;1.0;1.0;1.0 0
c p weight 151 1.0;1.0;1.0;1.0;1.0;1.0;1.0;1.0;1.0 0
c p weight -151 1.0;1.0;1.0;1.0;1.0;1.0;1.0;1.0;1.0 0
c p weight 152 1.0;1.0;1.0;1.0;1.0;1.0;1.0;1.0;1.0 0
c p weight -152 1.0;1.0;1.0;1.0;1.0;1.0;1.0;1.0;1.0 0
c p weight 153 1.0;1.0;1.0;1.0;1.0;1.0;1.0;1.0;1.0 0
c p weight -153 1.0;1.0;1.0;1.0;1.0;1.0;1.0;1.0;1.0 0
c p weight 154 1.0;1.0;1.0;1.0;1.0;1.0;1.0;1.0;1.0 0
c p weight -154 1.0;1.0;1.0;1.0;1.0;1.0;1.0;1.0;1.0 0
c p weight 155 1.0;1.0;1.0;1.0;1.0;1.0;1.0;1.0;1.0 0
c p weight -155 1.0;1.0;1.0;1.0;1.0;1.0;1.0;1.0;1.0 0
c p weight 156 1.0;1.0;1.0;1.0;1.0;1.0;1.0;1.0;1.0 0
c p weight -156 1.0;1.0;1.0;1.0;1.0;1.0;1.0;1.0;1.0 0
c p weight 157 1.0;1.0;1.0;1.0;1.0;1.0;1.0;1.0;1.0 0
c p weight -157 1.0;1.0;1.0;1.0;1.0;1.0;1.0;1.0;1.0 0
c p weight 158 1.0;1.0;1.0;1.0;1.0;1.0;1.0;1.0;1.0 0
c p weight -158 1.0;1.0;1.0;1.0;1.0;1.0;1.0;1.0;1.0 0
c p weight 159 1.0;1.0;1.0;1.0;1.0;1.0;1.0;1.0;1.0 0
c p weight -159 1.0;1.0;1.0;1.0;1.0;1.0;1.0;1.0;1.0 0
c p weight 160 1.0;1.0;1.0;1.0;1.0;1.0;1.0;1.0;1.0 0
c p weight -160 1.0;1.0;1.0;1.0;1.0;1.0;1.0;1.0;1.0 0
c p weight 161 1.0;1.0;1.0;1.0;1.0;1.0;1.0;1.0;1.0 0
c p weight -161 1.0;1.0;1.0;1.0;1.0;1.0;1.0;1.0;1.0 0
c p weight 162 1.0;1.0;1.0;1.0;1.0;1.0;1.0;1.0;1.0 0
c p weight -162 1.0;1.0;1.0;1.0;1.0;1.0;1.0;1.0;1.0 0
c p weight 163 1.0;1.0;1.0;1.0;1.0;1.0;1.0;1.0;1.0 0
c p weight -163 1.0;1.0;1.0;1.0;1.0;1.0;1.0;1.0;1.0 0
c p weight 164 1.0;1.0;1.0;1.0;1.0;1.0;1.0;1.0;1.0 0
c p weight -164 1.0;1.0;1.0;1.0;1.0;1.0;1.0;1.0;1.0 0
c p weight 165 1.0;1.0;1.0;1.0;1.0;1.0;1.0;1.0;1.0 0
c p weight -165 1.0;1.0;1.0;1.0;1.0;1.0;1.0;1.0;1.0 0
c p weight 166 1.0;1.0;1.0;1.0;1.0;1.0;1.0;1.0;1.0 0
c p weight -166 1.0;1.0;1.0;1.0;1.0;1.0;1.0;1.0;1.0 0
c p weight 167 1.0;1.0;1.0;1.0;1.0;1.0;1.0;1.0;1.0 0
c p weight -167 1.0;1.0;1.0;1.0;1.0;1.0;1.0;1.0;1.0 0
c p weight 168 1.0;1.0;1.0;1.0;1.0;1.0;1.0;1.0;1.0 0
c p weight -168 1.0;1.0;1.0;1.0;1.0;1.0;1.0;1.0;1.0 0
c p weight 169 1.0;1.0;1.0;1.0;1.0;1.0;1.0;1.0;1.0 0
c p weight -169 1.0;1.0;1.0;1.0;1.0;1.0;1.0;1.0;1.0 0
c p weight 170 1.0;1.0;1.0;1.0;1.0;1.0;1.0;1.0;1.0 0
c p weight -170 1.0;1.0;1.0;1.0;1.0;1.0;1.0;1.0;1.0 0
c p weight 171 1.0;1.0;1.0;1.0;1.0;1.0;1.0;1.0;1.0 0
c p weight -171 1.0;1.0;1.0;1.0;1.0;1.0;1.0;1.0;1.0 0
c p weight 172 1.0;1.0;1.0;1.0;1.0;1.0;1.0;1.0;1.0 0
c p weight -172 1.0;1.0;1.0;1.0;1.0;1.0;1.0;1.0;1.0 0
c p weight 173 1.0;1.0;1.0;1.0;1.0;1.0;1.0;1.0;1.0 0
c p weight -173 1.0;1.0;1.0;1.0;1.0;1.0;1.0;1.0;1.0 0
c p weight 174 1.0;1.0;1.0;1.0;1.0;1.0;1.0;1.0;1.0 0
c p weight -174 1.0;1.0;1.0;1.0;1.0;1.0;1.0;1.0;1.0 0
c p weight 175 1.0;1.0;1.0;1.0;1.0;1.0;1.0;1.0;1.0 0
c p weight -175 1.0;1.0;1.0;1.0;1.0;1.0;1.0;1.0;1.0 0
c p weight 176 1.0;1.0;1.0;1.0;1.0;1.0;1.0;1.0;1.0 0
c p weight -176 1.0;1.0;1.0;1.0;1.0;1.0;1.0;1.0;1.0 0
c p weight 177 1.0;1.0;1.0;1.0;1.0;1.0;1.0;1.0;1.0 0
c p weight -177 1.0;1.0;1.0;1.0;1.0;1.0;1.0;1.0;1.0 0
c p weight 178 1.0;1.0;1.0;1.0;1.0;1.0;1.0;1.0;1.0 0
c p weight -178 1.0;1.0;1.0;1.0;1.0;1.0;1.0;1.0;1.0 0
c p weight 179 1.0;1.0;1.0;1.0;1.0;1.0;1.0;1.0;1.0 0
c p weight -179 1.0;1.0;1.0;1.0;1.0;1.0;1.0;1.0;1.0 0
c p weight 180 1.0;1.0;1.0;1.0;1.0;1.0;1.0;1.0;1.0 0
c p weight -180 1.0;1.0;1.0;1.0;1.0;1.0;1.0;1.0;1.0 0
c p weight 181 1.0;1.0;1.0;1.0;1.0;1.0;1.0;1.0;1.0 0
c p weight -181 1.0;1.0;1.0;1.0;1.0;1.0;1.0;1.0;1.0 0
c p weight 182 1.0;1.0;1.0;1.0;1.0;1.0;1.0;1.0;1.0 0
c p weight -182 1.0;1.0;1.0;1.0;1.0;1.0;1.0;1.0;1.0 0
c p weight 183 1.0;1.0;1.0;1.0;1.0;1.0;1.0;1.0;1.0 0
c p weight -183 1.0;1.0;1.0;1.0;1.0;1.0;1.0;1.0;1.0 0
c p weight 184 1.0;1.0;1.0;1.0;1.0;1.0;1.0;1.0;1.0 0
c p weight -184 1.0;1.0;1.0;1.0;1.0;1.0;1.0;1.0;1.0 0
c p weight 185 1.0;1.0;1.0;1.0;1.0;1.0;1.0;1.0;1.0 0
c p weight -185 1.0;1.0;1.0;1.0;1.0;1.0;1.0;1.0;1.0 0
c p weight 186 1.0;1.0;1.0;1.0;1.0;1.0;1.0;1.0;1.0 0
c p weight -186 1.0;1.0;1.0;1.0;1.0;1.0;1.0;1.0;1.0 0
c p weight 187 1.0;1.0;1.0;1.0;1.0;1.0;1.0;1.0;1.0 0
c p weight -187 1.0;1.0;1.0;1.0;1.0;1.0;1.0;1.0;1.0 0
c p weight 188 1.0;1.0;1.0;1.0;1.0;1.0;1.0;1.0;1.0 0
c p weight -188 1.0;1.0;1.0;1.0;1.0;1.0;1.0;1.0;1.0 0
c p weight 189 1.0;1.0;1.0;1.0;1.0;1.0;1.0;1.0;1.0 0
c p weight -189 1.0;1.0;1.0;1.0;1.0;1.0;1.0;1.0;1.0 0
c p weight 190 1.0;1.0;1.0;1.0;1.0;1.0;1.0;1.0;1.0 0
c p weight -190 1.0;1.0;1.0;1.0;1.0;1.0;1.0;1.0;1.0 0
c p weight 191 1.0;1.0;1.0;1.0;1.0;1.0;1.0;1.0;1.0 0
c p weight -191 1.0;1.0;1.0;1.0;1.0;1.0;1.0;1.0;1.0 0
c p weight 192 1.0;1.0;1.0;1.0;1.0;1.0;1.0;1.0;1.0 0
c p weight -192 1.0;1.0;1.0;1.0;1.0;1.0;1.0;1.0;1.0 0
c p weight 193 1.0;1.0;1.0;1.0;1.0;1.0;1.0;1.0;1.0 0
c p weight -193 1.0;1.0;1.0;1.0;1.0;1.0;1.0;1.0;1.0 0
c p weight 194 1.0;1.0;1.0;1.0;1.0;1.0;1.0;1.0;1.0 0
c p weight -194 1.0;1.0;1.0;1.0;1.0;1.0;1.0;1.0;1.0 0
c p weight 195 1.0;1.0;1.0;1.0;1.0;1.0;1.0;1.0;1.0 0
c p weight -195 1.0;1.0;1.0;1.0;1.0;1.0;1.0;1.0;1.0 0
c p weight 196 1.0;1.0;1.0;1.0;1.0;1.0;1.0;1.0;1.0 0
c p weight -196 1.0;1.0;1.0;1.0;1.0;1.0;1.0;1.0;1.0 0
c p weight 197 1.0;1.0;1.0;1.0;1.0;1.0;1.0;1.0;1.0 0
c p weight -197 1.0;1.0;1.0;1.0;1.0;1.0;1.0;1.0;1.0 0
c p weight 198 1.0;1.0;1.0;1.0;1.0;1.0;1.0;1.0;1.0 0
c p weight -198 1.0;1.0;1.0;1.0;1.0;1.0;1.0;1.0;1.0 0
c p weight 199 1.0;1.0;1.0;1.0;1.0;1.0;1.0;1.0;1.0 0
c p weight -199 1.0;1.0;1.0;1.0;1.0;1.0;1.0;1.0;1.0 0
c p weight 200 1.0;1.0;1.0;1.0;1.0;1.0;1.0;1.0;1.0 0
c p weight -200 1.0;1.0;1.0;1.0;1.0;1.0;1.0;1.0;1.0 0
c p weight 201 1.0;1.0;1.0;1.0;1.0;1.0;1.0;1.0;1.0 0
c p weight -201 1.0;1.0;1.0;1.0;1.0;1.0;1.0;1.0;1.0 0
c p weight 202 1.0;1.0;1.0;1.0;1.0;1.0;1.0;1.0;1.0 0
c p weight -202 1.0;1.0;1.0;1.0;1.0;1.0;1.0;1.0;1.0 0
c p weight 203 1.0;1.0;1.0;1.0;1.0;1.0;1.0;1.0;1.0 0
c p weight -203 1.0;1.0;1.0;1.0;1.0;1.0;1.0;1.0;1.0 0
c p weight 204 1.0;1.0;1.0;1.0;1.0;1.0;1.0;1.0;1.0 0
c p weight -204 1.0;1.0;1.0;1.0;1.0;1.0;1.0;1.0;1.0 0
c p weight 205 1.0;1.0;1.0;1.0;1.0;1.0;1.0;1.0;1.0 0
c p weight -205 1.0;1.0;1.0;1.0;1.0;1.0;1.0;1.0;1.0 0
c p weight 206 1.0;1.0;1.0;1.0;1.0;1.0;1.0;1.0;1.0 0
c p weight -206 1.0;1.0;1.0;1.0;1.0;1.0;1.0;1.0;1.0 0
c p weight 207 1.0;1.0;1.0;1.0;1.0;1.0;1.0;1.0;1.0 0
c p weight -207 1.0;1.0;1.0;1.0;1.0;1.0;1.0;1.0;1.0 0
c p weight 208 1.0;1.0;1.0;1.0;1.0;1.0;1.0;1.0;1.0 0
c p weight -208 1.0;1.0;1.0;1.0;1.0;1.0;1.0;1.0;1.0 0
c p weight 209 1.0;1.0;1.0;1.0;1.0;1.0;1.0;1.0;1.0 0
c p weight -209 1.0;1.0;1.0;1.0;1.0;1.0;1.0;1.0;1.0 0
c p weight 210 1.0;1.0;1.0;1.0;1.0;1.0;1.0;1.0;1.0 0
c p weight -210 1.0;1.0;1.0;1.0;1.0;1.0;1.0;1.0;1.0 0
c p weight 211 1.0;1.0;1.0;1.0;1.0;1.0;1.0;1.0;1.0 0
c p weight -211 1.0;1.0;1.0;1.0;1.0;1.0;1.0;1.0;1.0 0
c p semirings aspmc.semirings.probabilistic 0
c p quantify 1 2 3 4 5 6 7 8 9 10 11 12 13 14 15 16 17 18 19 20 21 22 23 24 25 26 27 28 29 30 31 32 33 34 35 36 37 38 39 40 41 42 43 44 45 46 47 48 49 50 51 52 53 54 55 56 57 58 59 60 61 62 63 64 65 66 67 68 69 70 71 72 73 74 75 76 77 78 79 80 81 82 83 84 85 86 87 88 89 90 91 92 93 94 95 96 97 98 99 100 101 102 103 104 105 106 107 108 109 110 111 112 113 114 115 116 117 118 119 120 121 122 123 124 125 126 127 128 129 130 131 132 133 134 135 136 137 138 139 140 141 142 143 144 145 146 147 148 149 150 151 152 153 154 155 156 157 158 159 160 161 162 163 164 165 166 167 168 169 170 171 172 173 174 175 176 177 178 179 180 181 182 183 184 185 186 187 188 189 190 191 192 193 194 195 196 197 198 199 200 201 202 203 204 205 206 207 208 209 210 211 0
c p auxilliary 1 2 3 4 5 6 7 8 9 10 11 12 13 14 15 16 17 18 19 20 21 22 23 24 25 26 27 28 29 30 31 32 33 76 77 78 79 80 81 82 83 84 85 86 87 88 89 90 91 92 93 94 95 96 97 98 99 100 101 102 103 104 105 106 107 108 109 110 111 112 113 114 115 116 117 118 119 120 121 122 123 124 125 126 127 128 129 130 131 132 133 134 135 136 137 138 139 140 141 142 143 144 145 146 147 148 149 150 151 152 153 154 155 156 157 158 159 160 161 162 163 164 165 166 167 168 169 170 171 172 173 174 175 176 177 178 179 180 181 182 183 184 185 186 187 188 189 190 191 192 193 194 195 196 197 198 199 200 201 202 203 204 205 206 207 208 209 210 211 0
